Gurobi Optimizer version 9.1.2 build v9.1.2rc0 (linux64)
Thread count: 36 physical cores, 72 logical processors, using up to 32 threads
Optimize a model with 12 rows, 57 columns and 590 nonzeros
Model fingerprint: 0xf32eec78
Model has 47 quadratic constraints
Coefficient statistics:
  Matrix range     [2e-05, 3e+00]
  QMatrix range    [1e+00, 1e+00]
  QLMatrix range   [1e+00, 1e+00]
  Objective range  [8e-03, 7e-01]
  Bounds range     [1e+00, 1e+00]
  RHS range        [1e+00, 1e+00]
Presolve removed 9 rows and 0 columns

Continuous model is non-convex -- solving as a MIP.

Presolve removed 9 rows and 0 columns
Presolve time: 0.00s
Presolved: 189 rows, 57 columns, 443 nonzeros
Presolved model has 47 bilinear constraint(s)
Variable types: 57 continuous, 0 integer (0 binary)

Root relaxation: objective -1.743721e+00, 44 iterations, 0.00 seconds

    Nodes    |    Current Node    |     Objective Bounds      |     Work
 Expl Unexpl |  Obj  Depth IntInf | Incumbent    BestBd   Gap | It/Node Time

     0     0   -1.74372    0   38          -   -1.74372      -     -    0s
H    0     0                       0.6147548   -1.74372   384%     -    0s
     0     0   -1.64739    0    1    0.61475   -1.64739   368%     -    0s
H    0     0                      -1.6450460   -1.64739  0.14%     -    0s
     0     0     cutoff    0        -1.64505   -1.64505  0.00%     -    0s

Cutting planes:
  RLT: 25
  BQP: 3

Explored 1 nodes (76 simplex iterations) in 0.01 seconds
Thread count was 32 (of 72 available processors)

Solution count 2: -1.64505 0.614755 
No other solutions better than -1.64505

Optimal solution found (tolerance 1.00e-04)
Best objective -1.645045978473e+00, best bound -1.645045978473e+00, gap 0.0000%

User-callback calls 78, time in user-callback 0.00 sec
Gurobi Optimizer version 9.1.2 build v9.1.2rc0 (linux64)
Thread count: 36 physical cores, 72 logical processors, using up to 32 threads
Optimize a model with 24 rows, 125 columns and 2580 nonzeros
Model fingerprint: 0xdfb0bdf1
Model has 105 quadratic constraints
Coefficient statistics:
  Matrix range     [5e-06, 5e+01]
  QMatrix range    [1e+00, 1e+00]
  QLMatrix range   [1e+00, 1e+00]
  Objective range  [1e-02, 1e+00]
  Bounds range     [1e+00, 1e+00]
  RHS range        [1e+00, 1e+00]
Presolve removed 10 rows and 0 columns

Continuous model is non-convex -- solving as a MIP.

Presolve removed 10 rows and 0 columns
Presolve time: 0.00s
Presolved: 429 rows, 125 columns, 2142 nonzeros
Presolved model has 105 bilinear constraint(s)
Variable types: 125 continuous, 0 integer (0 binary)

Root relaxation: objective -5.240983e+00, 131 iterations, 0.00 seconds

    Nodes    |    Current Node    |     Objective Bounds      |     Work
 Expl Unexpl |  Obj  Depth IntInf | Incumbent    BestBd   Gap | It/Node Time

     0     0   -5.24098    0   95          -   -5.24098      -     -    0s
H    0     0                      -0.2493316   -5.24098  2002%     -    0s
     0     0   -4.43440    0   72   -0.24933   -4.43440  1679%     -    0s
H    0     0                      -1.8180679   -4.43440   144%     -    0s
     0     0   -4.41946    0   83   -1.81807   -4.41946   143%     -    0s
     0     0   -4.32511    0   58   -1.81807   -4.32511   138%     -    0s
H    0     0                      -2.4071468   -4.32511  79.7%     -    0s
     0     0   -4.30868    0   66   -2.40715   -4.30868  79.0%     -    0s
     0     0   -4.28921    0   66   -2.40715   -4.28921  78.2%     -    0s
     0     0   -4.28199    0   66   -2.40715   -4.28199  77.9%     -    0s
     0     0   -4.26764    0   55   -2.40715   -4.26764  77.3%     -    0s
     0     0   -4.26008    0   55   -2.40715   -4.26008  77.0%     -    0s
     0     0   -4.23468    0   83   -2.40715   -4.23468  75.9%     -    0s
H    0     0                      -2.4518918   -4.23468  72.7%     -    0s
     0     0   -4.23015    0   72   -2.45189   -4.23015  72.5%     -    0s
     0     0   -4.22823    0   83   -2.45189   -4.22823  72.4%     -    0s
     0     0   -4.22820    0   83   -2.45189   -4.22820  72.4%     -    0s
     0     0   -4.22641    0   82   -2.45189   -4.22641  72.4%     -    0s
H    0     0                      -2.6055163   -4.22641  62.2%     -    0s
H    0     0                      -2.6055166   -4.22641  62.2%     -    0s
     0     0   -4.22583    0   83   -2.60552   -4.22583  62.2%     -    0s
     0     0   -4.22509    0   83   -2.60552   -4.22509  62.2%     -    0s
H    0     0                      -3.3304385   -4.22509  26.9%     -    0s
H    0     0                      -3.3456009   -4.22509  26.3%     -    0s
H    0     0                      -3.3768668   -4.22509  25.1%     -    0s
H    0     0                      -3.5291660   -4.22509  19.7%     -    0s
H    0     0                      -3.5756532   -4.22509  18.2%     -    0s
     0     2   -4.22509    0   83   -3.57565   -4.22509  18.2%     -    0s
*  436   173              16      -3.5766573   -3.80361  6.35%  33.5    0s
*  458   173              15      -3.5822367   -3.80361  6.18%  32.5    0s
*  553   227              17      -3.5824878   -3.80361  6.17%  29.3    0s
*  589   287              24      -3.5842117   -3.80361  6.12%  28.2    0s
*  597   287              25      -3.6159785   -3.80361  5.19%  27.9    0s
*  693   287              17      -3.6179945   -3.80361  5.13%  25.2    0s
*  733   257              25      -3.6375822   -3.73626  2.71%  24.4    0s
*  842   257              25      -3.6503737   -3.73626  2.35%  22.2    0s
*  973   128              22      -3.6503773   -3.73212  2.24%  20.5    0s
*  997   128              25      -3.6503983   -3.73212  2.24%  20.1    0s
* 1008   128              22      -3.6504086   -3.73212  2.24%  19.9    0s
* 1012   128              22      -3.6504097   -3.73212  2.24%  19.8    0s
* 1127    46              21      -3.6504201   -3.65552  0.14%  18.2    0s

Cutting planes:
  RLT: 56
  BQP: 10
  PSD: 30

Explored 1266 nodes (21227 simplex iterations) in 0.50 seconds
Thread count was 32 (of 72 available processors)

Solution count 10: -3.65042 -3.65041 -3.65041 ... -3.58421
No other solutions better than -3.65042

Optimal solution found (tolerance 1.00e-04)
Best objective -3.650420122119e+00, best bound -3.650420122119e+00, gap 0.0000%

User-callback calls 2837, time in user-callback 0.00 sec



objective value: -3.6504201221191934
objective bound: -3.6504201221191934
x_opt: [0.0, 0.0, 1.0, 0.03362594402441169, 1.0, 0.6576620373980544, 1.0, 1.0, 1.0, 0.0, 0.0, 0.2266079494462831, 0.013892395882704456, 0.0, 0.0, 0.5006807510876181, 0.0, 0.0, 0.0, 0.0]
GUROBI solution time: 0.5004949569702148




